
******************************************************************************
This program contains Ipopt, a library for large-scale nonlinear optimization.
 Ipopt is released as open source code under the Eclipse Public License (EPL).
         For more information visit http://projects.coin-or.org/Ipopt
******************************************************************************

This is Ipopt version 3.12.6, running with linear solver ma57.

Number of nonzeros in equality constraint Jacobian...:        2
Number of nonzeros in inequality constraint Jacobian.:        0
Number of nonzeros in Lagrangian Hessian.............:        2

Total number of variables............................:        2
                     variables with only lower bounds:        0
                variables with lower and upper bounds:        0
                     variables with only upper bounds:        0
Total number of equality constraints.................:        1
Total number of inequality constraints...............:        0
        inequality constraints with only lower bounds:        0
   inequality constraints with lower and upper bounds:        0
        inequality constraints with only upper bounds:        0

iter    objective    inf_pr   inf_du lg(mu)  ||d||  lg(rg) alpha_du alpha_pr  ls
   0 -1.0999998e+00 2.20e-01 9.02e-02  -1.0 0.00e+00    -  0.00e+00 0.00e+00   0
   1 -1.0099106e+00 2.00e-02 8.86e-03  -1.7 1.09e-01    -  1.00e+00 1.00e+00h  1
   2 -1.0000903e+00 1.81e-04 1.65e-04  -3.8 9.82e-03    -  1.00e+00 1.00e+00h  1
   3 -1.0000000e+00 3.19e-08 3.94e-08  -5.7 1.54e-04    -  1.00e+00 1.00e+00h  1
   4 -1.0000000e+00 1.78e-15 1.54e-15  -8.6 3.94e-08    -  1.00e+00 1.00e+00h  1

Number of Iterations....: 4

                                   (scaled)                 (unscaled)
Objective...............:  -1.0000000000000009e+00   -1.0000000000000009e+00
Dual infeasibility......:   1.5355409520426570e-15    1.5355409520426570e-15
Constraint violation....:   1.7763568394002528e-15    1.7763568394002528e-15
Complementarity.........:   0.0000000000000000e+00    0.0000000000000000e+00
Overall NLP error.......:   1.7763568394002528e-15    1.7763568394002528e-15


Number of objective function evaluations             = 5
Number of objective gradient evaluations             = 5
Number of equality constraint evaluations            = 5
Number of inequality constraint evaluations          = 0
Number of equality constraint Jacobian evaluations   = 5
Number of inequality constraint Jacobian evaluations = 0
Number of Lagrangian Hessian evaluations             = 4
Total CPU secs in IPOPT (w/o function evaluations)   =      0.007
Total CPU secs in NLP function evaluations           =      0.000

EXIT: Optimal Solution Found.

************************ CUTEst statistics ************************


 Package used            :  IPOPT
 Problem                 :  MARATOS   
 # variables             =               2
 # constraints           =               1
 # objective functions   =        0.1100000E+02
 # objective gradients   =        0.6000000E+01
 # objective Hessians    =        0.5000000E+01
 # Hessian-vector prdct  =        0.0000000E+00
 # constraints functions =        0.1200000E+02
 # constraints gradients =        0.7000000E+01
 # constraints Hessians  =        0.5000000E+01
 Exit code               =               0
 Final f                 =  -0.1000000E+01
 Set up time             =            0.00 seconds
 Solve time              =            0.01 seconds


******************************************************************

System Time =       0.0030000000 s.
